Instance: E101-10c.dat
Class:  5
  100 --- number of customers (no depot)
   20 --- number of vehicles
  310 --- number of items
Capacity - height - width of vehicles
   200     40     20
Node - x - y - demand
    0    40.0    50.0     0.0
    1    45.0    68.0    10.0
    2    45.0    70.0    30.0
    3    42.0    66.0    10.0
    4    42.0    68.0    10.0
    5    42.0    65.0    10.0
    6    40.0    69.0    20.0
    7    40.0    66.0    20.0
    8    38.0    68.0    20.0
    9    38.0    70.0    10.0
   10    35.0    66.0    10.0
   11    35.0    69.0    10.0
   12    25.0    85.0    20.0
   13    22.0    75.0    30.0
   14    22.0    85.0    10.0
   15    20.0    80.0    40.0
   16    20.0    85.0    40.0
   17    18.0    75.0    20.0
   18    15.0    75.0    20.0
   19    15.0    80.0    10.0
   20    30.0    50.0    10.0
   21    30.0    52.0    20.0
   22    28.0    52.0    20.0
   23    28.0    55.0    10.0
   24    25.0    50.0    10.0
   25    25.0    52.0    40.0
   26    25.0    55.0    10.0
   27    23.0    52.0    10.0
   28    23.0    55.0    20.0
   29    20.0    50.0    10.0
   30    20.0    55.0    10.0
   31    10.0    35.0    20.0
   32    10.0    40.0    30.0
   33     8.0    40.0    40.0
   34     8.0    45.0    20.0
   35     5.0    35.0    10.0
   36     5.0    45.0    10.0
   37     2.0    40.0    20.0
   38     0.0    40.0    30.0
   39     0.0    45.0    20.0
   40    35.0    30.0    10.0
   41    35.0    32.0    10.0
   42    33.0    32.0    20.0
   43    33.0    35.0    10.0
   44    32.0    30.0    10.0
   45    30.0    30.0    10.0
   46    30.0    32.0    30.0
   47    30.0    35.0    10.0
   48    28.0    30.0    10.0
   49    28.0    35.0    10.0
   50    26.0    32.0    10.0
   51    25.0    30.0    10.0
   52    25.0    35.0    10.0
   53    44.0     5.0    20.0
   54    42.0    10.0    40.0
   55    42.0    15.0    10.0
   56    40.0     5.0    30.0
   57    40.0    15.0    40.0
   58    38.0     5.0    30.0
   59    38.0    15.0    10.0
   60    35.0     5.0    20.0
   61    50.0    30.0    10.0
   62    50.0    35.0    20.0
   63    50.0    40.0    50.0
   64    48.0    30.0    10.0
   65    48.0    40.0    10.0
   66    47.0    35.0    10.0
   67    47.0    40.0    10.0
   68    45.0    30.0    10.0
   69    45.0    35.0    10.0
   70    95.0    30.0    30.0
   71    95.0    35.0    20.0
   72    53.0    30.0    10.0
   73    92.0    30.0    10.0
   74    53.0    35.0    50.0
   75    45.0    65.0    20.0
   76    90.0    35.0    10.0
   77    88.0    30.0    10.0
   78    88.0    35.0    20.0
   79    87.0    30.0    10.0
   80    85.0    25.0    10.0
   81    85.0    35.0    30.0
   82    75.0    55.0    20.0
   83    72.0    55.0    10.0
   84    70.0    58.0    20.0
   85    68.0    60.0    30.0
   86    66.0    55.0    10.0
   87    65.0    55.0    20.0
   88    65.0    60.0    30.0
   89    63.0    58.0    10.0
   90    60.0    55.0    10.0
   91    60.0    60.0    10.0
   92    67.0    85.0    20.0
   93    65.0    85.0    40.0
   94    65.0    82.0    10.0
   95    62.0    80.0    30.0
   96    60.0    80.0    10.0
   97    60.0    85.0    30.0
   98    58.0    75.0    20.0
   99    55.0    80.0    10.0
  100    55.0    85.0    20.0
Node - number of items - h - w for each item
    0   0
    1   4    7    5    8    3    5    3   15    2
    2   1   19    3
    3   3    9    5   22    3   15    3
    4   4    5   11    6    8    5    7    6    4
    5   4    7   12    6    5   17    3   11    3
    6   4    5    9    6    4   21    3    9    3
    7   4    5    7   22    3    7    3   23    2
    8   3    4    4    7    3    6    3
    9   3    7   10   11    5    4    2
   10   1    9    2
   11   1    8    5
   12   1    4    3
   13   4    7    6    4    5   22    4   11    3
   14   2    5   11   16    3
   15   4   12    4    7    4    5    4   11    3
   16   4    8   10    7    9    6    8    5    6
   17   4    5    9    6    6   10    3    8    3
   18   4    7    6   21    4   13    3    9    3
   19   2   22    3   15    3
   20   4    7   11    7   10    5    6    7    2
   21   4    6   11   10    5   10    3   10    3
   22   4   10    4    4    3   18    2   12    2
   23   5    7   11    6    5    6    4    6    4    5    4
   24   1    8    3
   25   4    6    4   11    3    9    3    5    2
   26   5    7   11    5   11    9    4    8    4   13    3
   27   4    4   10    7    5   10    4    8    4
   28   2    7    7   23    3
   29   4    4   10   12    5    4    5   19    4
   30   5    7    9   15    4    7    4   18    3    8    2
   31   5    4    9    8    7   11    3   11    3   22    2
   32   2    6   10    5    3
   33   5    5    8   21    4   19    3    4    3   10    2
   34   4    8    8    6    5   18    3   11    2
   35   3    7    3   20    2    5    2
   36   2    6    7    6    2
   37   4    6    5   20    4    5    4   14    3
   38   4    7    5   13    4    7    4   20    3
   39   2   11    6    6    2
   40   1   18    3
   41   4    6    9   11    6    8    3    6    2
   42   1    9    4
   43   1    6    6
   44   3    8    9   24    4   16    2
   45   1    9    5
   46   5    8    9    5    7   13    4    6    3    5    3
   47   4    7   11    5    7    5    4    5    2
   48   5    8    5   12    4    9    4   16    3   10    2
   49   5    6    7    5    5    7    4    6    3   24    2
   50   5    4   11    4   10    8    7   13    2    4    2
   51   3    8    8   16    4    9    4
   52   2    4    7    8    4
   53   5    4    7    5    5   19    3   10    3    8    3
   54   1    9    3
   55   3    6    7    9    4   22    2
   56   2    8    6   13    3
   57   2    5    4   18    2
   58   5    5    8    6    5    7    4   14    3    7    2
   59   2    5   12    4   11
   60   3   10    5   11    3    4    3
   61   1   11    3
   62   1   10    3
   63   1    8    4
   64   2    6    7    5    3
   65   3   11    6   10    4    4    2
   66   5    6   11    7   10    4   10    4    3    5    2
   67   1   16    3
   68   1    5    3
   69   2    5    9   10    3
   70   5    5    5    5    4   22    3   13    3   22    2
   71   1   10    2
   72   5    7    6    5    5   15    4    4    3   11    2
   73   5    4    8   10    6    9    3   16    2    4    2
   74   3    6    7   10    6    4    6
   75   1    9    4
   76   2    8   11    8    8
   77   5    8    5    6    5   12    4   18    3    5    3
   78   4    6    6    6    6   16    4    4    2
   79   4    6    4    5    4   21    3    8    3
   80   2   16    3    6    3
   81   4    6    4    5    4   19    3    7    2
   82   5   10    6   24    3    9    3   18    2    6    2
   83   5    6    7    5    5   18    4    5    3    6    2
   84   2   21    3    9    3
   85   5    6    6    7    5    7    5    8    2    5    2
   86   5    8    4    6    4   11    3   10    3    8    2
   87   2    8   11    7    2
   88   3    7    9    6    5    7    2
   89   2    4    4    4    3
   90   3    8   11   23    4   14    3
   91   1    7    5
   92   3    7    9    6    4    7    2
   93   3    4    8   11    3    9    3
   94   3   11    4    6    4    8    2
   95   1    7    7
   96   5    6    9   17    4   17    3    6    3    5    3
   97   1    8    4
   98   4    8    7    9    6    9    6   10    3
   99   2    5   10    5    3
  100   4    5    8    6    7    5    4   20    3
